s td 48 2 64
b 1 1 35
b 2 2 49
b 3 3 41
b 4 4
b 5 5 36
b 6 5 63
b 7 6 53
b 8 7 44
b 9 8 55
b 10 9
b 11 10
b 12 11
b 13 12 56
b 14 13 19
b 15 14 20
b 16 14 40
b 17 39 40
b 18 40
b 19 16 48
b 20 15 26
b 21 15 47
b 22 47 48
b 23 48
b 24 17
b 25 18
b 26 21
b 27 22
b 28 23
b 29 24
b 30 25
b 31 27 28
b 32 29
b 33 30
b 34 31 32
b 35 33
b 36 34
b 37 37 38
b 38 42
b 39 43
b 40 45
b 41 46
b 42 50
b 43 51 52
b 44 54
b 45 57 58
b 46 59 60
b 47 61 62
b 48 64
1 2
1 3
1 4
1 5
1 7
1 8
1 9
1 10
1 11
1 12
1 13
1 14
1 15
1 19
1 24
1 25
1 26
1 27
1 28
1 29
1 30
1 31
1 32
1 33
1 34
1 35
1 36
1 37
1 38
1 39
1 40
1 41
1 42
1 43
1 44
1 45
1 46
1 47
1 48
5 6
15 16
16 18
17 18
19 23
20 21
21 22
22 23
